#=======================================================
# FHI-aims file: geometry.in
# Created using the Atomic Simulation Environment (ASE)
# Tue Aug 13 10:20:27 2024
#=======================================================
lattice_vector 10.2686308799999999 0.0000000000000000 0.0000000000000000 
lattice_vector 5.1343154400000000 8.8928951999999999 0.0000000000000000 
lattice_vector 0.0000000000000000 0.0000000000000000 100.0000000000000000 
atom_frac 0.9166666700000000 0.1666666700000000 0.4580784899999999 Cu
    constrain_relaxation .true.
atom_frac 0.0000000000000000 0.0000000000000000 0.4790392499999999 Cu
    constrain_relaxation .true.
atom_frac 0.0832323200000000 0.0832452100000000 0.4999438500000000 Cu
    constrain_relaxation .true.
atom_frac 0.9164198100000001 0.1664549400000000 0.5208558500000000 Cu
    constrain_relaxation .true.
atom_frac 0.9998763099999999 0.9999184400000000 0.5416342099999999 Cu
    constrain_relaxation .true.
atom_frac 0.9166666700000002 0.4166666700000000 0.4580784899999999 Cu
    constrain_relaxation .true.
atom_frac 0.0000000000000000 0.2500000000000000 0.4790392499999999 Cu
    constrain_relaxation .true.
atom_frac 0.0832323200000000 0.3332452200000000 0.4999438500000000 Cu
    constrain_relaxation .true.
atom_frac 0.9164198100000001 0.4164549400000000 0.5208558500000000 Cu
    constrain_relaxation .true.
atom_frac 0.9998763099999999 0.2499184400000000 0.5416342099999999 Cu
    constrain_relaxation .true.
atom_frac 0.9166666700000000 0.6666666700000000 0.4580784899999999 Cu
    constrain_relaxation .true.
atom_frac 0.0000000000000000 0.5000000000000000 0.4790392499999999 Cu
    constrain_relaxation .true.
atom_frac 0.0832323200000001 0.5832452100000000 0.4999438500000000 Cu
    constrain_relaxation .true.
atom_frac 0.9164198100000001 0.6664549400000001 0.5208558500000000 Cu
    constrain_relaxation .true.
atom_frac 0.9998763099999999 0.4999184400000000 0.5416342099999999 Cu
    constrain_relaxation .true.
atom_frac 0.9166666700000000 0.9166666700000000 0.4580784899999999 Cu
    constrain_relaxation .true.
atom_frac 0.0000000000000000 0.7500000000000000 0.4790392499999999 Cu
    constrain_relaxation .true.
atom_frac 0.0832323200000000 0.8332452200000000 0.4999438500000000 Cu
    constrain_relaxation .true.
atom_frac 0.9164198100000001 0.9164549400000001 0.5208558500000000 Cu
    constrain_relaxation .true.
atom_frac 0.9998763099999999 0.7499184400000000 0.5416342099999999 Cu
    constrain_relaxation .true.
atom_frac 0.1666666700000001 0.1666666700000000 0.4580784899999999 Cu
    constrain_relaxation .true.
atom_frac 0.2500000000000001 0.0000000000000000 0.4790392499999999 Cu
    constrain_relaxation .true.
atom_frac 0.3332323200000001 0.0832452100000000 0.4999438500000000 Cu
    constrain_relaxation .true.
atom_frac 0.1664198100000000 0.1664549400000000 0.5208558500000000 Cu
    constrain_relaxation .true.
atom_frac 0.2498763100000000 0.9999184400000000 0.5416342099999999 Cu
    constrain_relaxation .true.
atom_frac 0.1666666700000001 0.4166666700000000 0.4580784899999999 Cu
    constrain_relaxation .true.
atom_frac 0.2500000000000001 0.2500000000000000 0.4790392499999999 Cu
    constrain_relaxation .true.
atom_frac 0.3332323200000000 0.3332452200000000 0.4999438500000000 Cu
    constrain_relaxation .true.
atom_frac 0.1664198100000000 0.4164549400000000 0.5208558500000000 Cu
    constrain_relaxation .true.
atom_frac 0.2498763100000000 0.2499184400000000 0.5416342099999999 Cu
    constrain_relaxation .true.
atom_frac 0.1666666700000000 0.6666666700000000 0.4580784899999999 Cu
    constrain_relaxation .true.
atom_frac 0.2500000000000000 0.5000000000000000 0.4790392499999999 Cu
    constrain_relaxation .true.
atom_frac 0.3332323200000001 0.5832452100000000 0.4999438500000000 Cu
    constrain_relaxation .true.
atom_frac 0.1664198100000001 0.6664549400000001 0.5208558500000000 Cu
    constrain_relaxation .true.
atom_frac 0.2498763100000001 0.4999184400000000 0.5416342099999999 Cu
    constrain_relaxation .true.
atom_frac 0.1666666700000000 0.9166666700000000 0.4580784899999999 Cu
    constrain_relaxation .true.
atom_frac 0.2500000000000001 0.7500000000000000 0.4790392499999999 Cu
    constrain_relaxation .true.
atom_frac 0.3332323200000000 0.8332452200000000 0.4999438500000000 Cu
    constrain_relaxation .true.
atom_frac 0.1664198100000000 0.9164549400000001 0.5208558500000000 Cu
    constrain_relaxation .true.
atom_frac 0.2498763100000000 0.7499184400000000 0.5416342099999999 Cu
    constrain_relaxation .true.
atom_frac 0.4166666700000000 0.1666666700000000 0.4580784899999999 Cu
    constrain_relaxation .true.
atom_frac 0.5000000000000000 0.0000000000000000 0.4790392499999999 Cu
    constrain_relaxation .true.
atom_frac 0.5832323200000000 0.0832452100000000 0.4999438500000000 Cu
    constrain_relaxation .true.
atom_frac 0.4164198100000000 0.1664549400000000 0.5208558500000000 Cu
    constrain_relaxation .true.
atom_frac 0.4998763099999999 0.9999184400000000 0.5416342099999999 Cu
    constrain_relaxation .true.
atom_frac 0.4166666700000000 0.4166666700000000 0.4580784899999999 Cu
    constrain_relaxation .true.
atom_frac 0.5000000000000000 0.2500000000000000 0.4790392499999999 Cu
    constrain_relaxation .true.
atom_frac 0.5832323200000000 0.3332452100000000 0.4999438500000000 Cu
    constrain_relaxation .true.
atom_frac 0.4164198099999999 0.4164549400000000 0.5208558500000000 Cu
    constrain_relaxation .true.
atom_frac 0.4998763100000000 0.2499184400000000 0.5416342099999999 Cu
    constrain_relaxation .true.
atom_frac 0.4166666700000000 0.6666666700000000 0.4580784899999999 Cu
    constrain_relaxation .true.
atom_frac 0.5000000000000000 0.5000000000000000 0.4790392499999999 Cu
    constrain_relaxation .true.
atom_frac 0.5832323200000000 0.5832452100000000 0.4999438500000000 Cu
    constrain_relaxation .true.
atom_frac 0.4164198100000000 0.6664549400000001 0.5208558500000000 Cu
    constrain_relaxation .true.
atom_frac 0.4998763100000000 0.4999184400000000 0.5416342099999999 Cu
    constrain_relaxation .true.
atom_frac 0.4166666700000000 0.9166666700000000 0.4580784899999999 Cu
    constrain_relaxation .true.
atom_frac 0.5000000000000000 0.7500000000000000 0.4790392499999999 Cu
    constrain_relaxation .true.
atom_frac 0.5832323200000000 0.8332452100000000 0.4999438500000000 Cu
    constrain_relaxation .true.
atom_frac 0.4164198100000000 0.9164549400000001 0.5208558500000000 Cu
    constrain_relaxation .true.
atom_frac 0.4998763100000000 0.7499184400000000 0.5416342099999999 Cu
    constrain_relaxation .true.
atom_frac 0.6666666700000000 0.1666666700000000 0.4580784899999999 Cu
    constrain_relaxation .true.
atom_frac 0.7500000000000000 0.0000000000000000 0.4790392499999999 Cu
    constrain_relaxation .true.
atom_frac 0.8332323200000000 0.0832452100000000 0.4999438500000000 Cu
    constrain_relaxation .true.
atom_frac 0.6664198099999999 0.1664549400000000 0.5208558500000000 Cu
    constrain_relaxation .true.
atom_frac 0.7498763100000000 0.9999184400000000 0.5416342099999999 Cu
    constrain_relaxation .true.
atom_frac 0.6666666700000000 0.4166666700000000 0.4580784899999999 Cu
    constrain_relaxation .true.
atom_frac 0.7499999999999999 0.2500000000000000 0.4790392499999999 Cu
    constrain_relaxation .true.
atom_frac 0.8332323200000000 0.3332452100000000 0.4999438500000000 Cu
    constrain_relaxation .true.
atom_frac 0.6664198099999998 0.4164549400000000 0.5208558500000000 Cu
    constrain_relaxation .true.
atom_frac 0.7498763100000000 0.2499184400000000 0.5416342099999999 Cu
    constrain_relaxation .true.
atom_frac 0.6666666700000001 0.6666666700000000 0.4580784899999999 Cu
    constrain_relaxation .true.
atom_frac 0.7500000000000000 0.5000000000000000 0.4790392499999999 Cu
    constrain_relaxation .true.
atom_frac 0.8332323200000000 0.5832452100000000 0.4999438500000000 Cu
    constrain_relaxation .true.
atom_frac 0.6664198099999999 0.6664549400000001 0.5208558500000000 Cu
    constrain_relaxation .true.
atom_frac 0.7498763100000001 0.4999184400000000 0.5416342099999999 Cu
    constrain_relaxation .true.
atom_frac 0.6666666700000001 0.9166666700000000 0.4580784899999999 Cu
    constrain_relaxation .true.
atom_frac 0.7500000000000001 0.7500000000000000 0.4790392499999999 Cu
    constrain_relaxation .true.
atom_frac 0.8332323200000000 0.8332452100000000 0.4999438500000000 Cu
    constrain_relaxation .true.
atom_frac 0.6664198099999999 0.9164549400000001 0.5208558500000000 Cu
    constrain_relaxation .true.
atom_frac 0.7498763099999999 0.7499184400000000 0.5416342099999999 Cu
    constrain_relaxation .true.
atom_frac 0.6331271300000000 0.6331611200000000 0.5521735799999999 H
     calculate_friction .true.
atom_frac 0.0833333332133998 0.0833333332719486 0.4371177350144357 Cu
    constrain_relaxation .true.
atom_frac 0.3333333329121478 0.0833333332719486 0.4371177350144357 Cu
    constrain_relaxation .true.
atom_frac 0.5833333326108959 0.0833333332719486 0.4371177350144357 Cu
    constrain_relaxation .true.
atom_frac 0.8333333323096440 0.0833333332719486 0.4371177350144357 Cu
    constrain_relaxation .true.
atom_frac 0.0833333331548509 0.3333333330877944 0.4371177350144357 Cu
    constrain_relaxation .true.
atom_frac 0.3333333328535989 0.3333333330877944 0.4371177350144357 Cu
    constrain_relaxation .true.
atom_frac 0.5833333325523470 0.3333333330877944 0.4371177350144357 Cu
    constrain_relaxation .true.
atom_frac 0.8333333322510950 0.3333333330877944 0.4371177350144357 Cu
    constrain_relaxation .true.
atom_frac 0.0833333330963019 0.5833333329036404 0.4371177350144357 Cu
    constrain_relaxation .true.
atom_frac 0.3333333327950500 0.5833333329036404 0.4371177350144357 Cu
    constrain_relaxation .true.
atom_frac 0.5833333324937980 0.5833333329036404 0.4371177350144357 Cu
    constrain_relaxation .true.
atom_frac 0.8333333321925462 0.5833333329036404 0.4371177350144357 Cu
    constrain_relaxation .true.
atom_frac 0.0833333330377530 0.8333333327194863 0.4371177350144357 Cu
    constrain_relaxation .true.
atom_frac 0.3333333327365010 0.8333333327194863 0.4371177350144357 Cu
    constrain_relaxation .true.
atom_frac 0.5833333324352492 0.8333333327194863 0.4371177350144357 Cu
    constrain_relaxation .true.
atom_frac 0.8333333321339972 0.8333333327194863 0.4371177350144357 Cu
    constrain_relaxation .true.
